4 
5  28 43 58 
6  13 28 43 58 
7  13 28 43 58 
8  13 28 43 58 
9  13 28 45 
10  00 15 30 45 
11  00 15 30 45 
12  00 15 30 45 
13  00 15 30 45 
14  00 15 30 42 57 
15  13 28 43 58 
16  13 28 43 58 
17  13 28 43 58 
18  13 28 43 58 
19  16 30 42 57 
20  12 
21 
